
--- Job SchedulingApproach.gms Start 08/01/21 07:23:25 35.2.0 r33388c4 WEX-WEI x86 64bit/MS Windows
--- Applying:
    C:\GAMS\35\gmsprmNT.txt
    C:\Users\Erwin\Documents\GAMS\gamsconfig.yaml
--- GAMS Parameters defined
    Input D:\projects\OptimizationModels\SchedulingApproach\SchedulingApproach.gms
    PageWidth 120
    PageSize 0
    PageContr 3
    Action CE
    ScrDir D:\projects\OptimizationModels\SchedulingApproach\225a\
    SysDir C:\GAMS\35\
    WorkDir D:\projects\OptimizationModels\SchedulingApproach\
    LogOption 3
    DFormat 0
    TFormat 0
    ErrorLog 99
    IDE 1
Licensee: Eval License                                   S201210/0001CO-GEN
          Amsterdam Optimization Modeling Group,                     DCE378
          C:\Users\Erwin\Documents\GAMS\gamslice.txt
          Evaluation license: Not for commercial or production use
GAMS 35.2.0   Copyright (C) 1987-2021 GAMS Development. All rights reserved
--- Starting compilation
--- SchedulingApproach.gms(160) 3 Mb
--- Starting execution: elapsed 0:00:00.044
--- SchedulingApproach.gms(100) 4 Mb
--- Generating MIP model m1
--- SchedulingApproach.gms(101) 5 Mb
---   232 rows  3,121 columns  17,696 non-zeroes
---   3,120 discrete-columns
--- Executing CPLEX (Solvelink=2): elapsed 0:00:00.379

IBM ILOG CPLEX   35.2.0 r33388c4 Released Jun 02, 2021 WEI x86 64bit/MS Window

--- GAMS/Cplex Link licensed for continuous and discrete problems.
--- Space for names approximately 0.08 Mb
--- Use option 'names no' to turn use of names off
--- GMO memory 1.39 Mb (peak 1.42 Mb)
--- Dictionary memory 0.00 Mb
--- Cplex 20.1.0.1 link memory 0.06 Mb (peak 0.42 Mb)
--- Starting Cplex

Version identifier: 20.1.0.1 | 2021-04-07 | 3a818710c
CPXPARAM_Advance                                 0
CPXPARAM_Threads                                 8
CPXPARAM_Parallel                                1
CPXPARAM_MIP_Display                             4
CPXPARAM_MIP_Tolerances_AbsMIPGap                0
CPXPARAM_MIP_Tolerances_MIPGap                   0
Generic callback                                 0x50
Tried aggregator 1 time.
MIP Presolve eliminated 98 rows and 996 columns.
MIP Presolve modified 3106 coefficients.
Reduced MIP has 112 rows, 2126 columns, and 7509 nonzeros.
Reduced MIP has 2125 binaries, 0 generals, 0 SOSs, and 0 indicators.
Presolve time = 0.09 sec. (15.60 ticks)
Found incumbent of value 131.000000 after 0.11 sec. (17.11 ticks)
Tried aggregator 1 time.
Detecting symmetries...
Reduced MIP has 112 rows, 2126 columns, and 7509 nonzeros.
Reduced MIP has 2125 binaries, 1 generals, 0 SOSs, and 0 indicators.
Presolve time = 0.02 sec. (4.57 ticks)
Dual steepest-edge pricing selected.
Probing time = 0.00 sec. (2.08 ticks)
Cover probing fixed 0 vars, tightened 3 bounds.
Clique table members: 60.
MIP emphasis: balance optimality and feasibility.
MIP search method: dynamic search.
Parallel mode: deterministic, using up to 8 threads.
Parallel mode: deterministic, using up to 2 threads for parallel tasks at root LP.
Parallel mode: deterministic, using up to 6 threads for concurrent optimization:
 * Starting dual Simplex on 1 thread...
 * Starting Barrier on 4 threads...
 * Starting primal Simplex on 1 thread...
Tried aggregator 1 time.
No LP presolve or aggregator reductions.
Presolve time = 0.00 sec. (0.71 ticks)
Initializing dual steep norms . . .

Iteration log . . .
Iteration:     1   Dual objective     =             5.000000
Iteration:    62   Dual objective     =             5.000000
Perturbation started.
Iteration:   101   Dual objective     =             5.000000
Iteration:   163   Dual objective     =             9.307695
Iteration:   225   Dual objective     =             9.307697
Iteration:   287   Dual objective     =             9.307697
Removing perturbation.

Dual simplex solved model.

Root relaxation solution time = 0.11 sec. (15.40 ticks)

        Nodes                                         Cuts/
   Node  Left     Objective  IInf  Best Integer    Best Bound    ItCnt     Gap

*     0+    0                          131.0000        0.0000           100.00%
Found incumbent of value 131.000000 after 0.28 sec. (41.91 ticks)
*     0+    0                          100.0000        0.0000           100.00%
Found incumbent of value 100.000000 after 0.28 sec. (41.98 ticks)
      0     0        9.3077    89      100.0000        9.3077      289   90.69%
*     0+    0                           17.0000        9.3077            45.25%
Found incumbent of value 17.000000 after 0.33 sec. (45.91 ticks)
*     0+    0                           11.0000        9.3077            15.38%
Found incumbent of value 11.000000 after 0.77 sec. (107.98 ticks)
      0     0       10.0000    32       11.0000   ZeroHalf: 4      322    9.09%
      0     0       10.0000    52       11.0000      Cuts: 80      465    9.09%
      0     0       10.0000    23       11.0000      Cuts: 16      508    9.09%
      0     0       10.0000    46       11.0000      Cuts: 31      617    9.09%
*     0+    0                           10.0000       10.0000             0.00%
Found incumbent of value 10.000000 after 3.53 sec. (843.87 ticks)
      0     0  -1.00000e+75     0       10.0000       10.0000      617    0.00%
      0     0        cutoff             10.0000       10.0000      617    0.00%
Elapsed time = 3.55 sec. (844.18 ticks, tree = 0.01 MB, solutions = 5)

GUB cover cuts applied:  13
Flow cuts applied:  2
Mixed integer rounding cuts applied:  3
Zero-half cuts applied:  8
Gomory fractional cuts applied:  5

Root node processing (before b&c):
  Real time             =    3.55 sec. (844.39 ticks)
Parallel b&c, 8 threads:
  Real time             =    0.00 sec. (0.00 ticks)
  Sync time (average)   =    0.00 sec.
  Wait time (average)   =    0.00 sec.
                          ------------
Total (root+branch&cut) =    3.55 sec. (844.39 ticks)

--- MIP status (101): integer optimal solution.
--- Cplex Time: 3.55sec (det. 844.40 ticks)

--- Fixing integer variables and solving final LP...

Version identifier: 20.1.0.1 | 2021-04-07 | 3a818710c
CPXPARAM_Advance                                 2
CPXPARAM_Threads                                 8
CPXPARAM_Parallel                                1
CPXPARAM_MIP_Display                             4
CPXPARAM_MIP_Tolerances_AbsMIPGap                0
CPXPARAM_MIP_Tolerances_MIPGap                   0
Parallel mode: deterministic, using up to 8 threads for concurrent optimization:
 * Starting dual Simplex on 1 thread...
 * Starting Barrier on 6 threads...
 * Starting primal Simplex on 1 thread...
Tried aggregator 1 time.
LP Presolve eliminated 232 rows and 3122 columns.
All rows and columns eliminated.
Presolve time = 0.00 sec. (1.40 ticks)

Dual simplex solved model.


--- Fixed MIP status (1): optimal.
--- Cplex Time: 0.02sec (det. 2.34 ticks)


Proven optimal solution
MIP Solution:           10.000000    (617 iterations, 0 nodes)
Final Solve:            10.000000    (0 iterations)

Best possible:          10.000000
Absolute gap:            0.000000
Relative gap:            0.000000

--- Reading solution for model m1
--- Executing after solve: elapsed 0:00:04.664
--- SchedulingApproach.gms(121) 5 Mb
--- Generating MIP model m2
--- SchedulingApproach.gms(141) 6 Mb
---   164 rows  2,178 columns  7,613 non-zeroes
---   2,125 discrete-columns
--- Executing CPLEX (Solvelink=2): elapsed 0:00:04.906

IBM ILOG CPLEX   35.2.0 r33388c4 Released Jun 02, 2021 WEI x86 64bit/MS Window

--- GAMS/Cplex Link licensed for continuous and discrete problems.
--- Space for names approximately 0.05 Mb
--- Use option 'names no' to turn use of names off
--- GMO memory 0.78 Mb (peak 0.79 Mb)
--- Dictionary memory 0.00 Mb
--- Cplex 20.1.0.1 link memory 0.04 Mb (peak 0.24 Mb)
--- Starting Cplex

Version identifier: 20.1.0.1 | 2021-04-07 | 3a818710c
CPXPARAM_Advance                                 0
CPXPARAM_Threads                                 8
CPXPARAM_Parallel                                1
CPXPARAM_MIP_Display                             4
CPXPARAM_MIP_Tolerances_AbsMIPGap                0
CPXPARAM_MIP_Tolerances_MIPGap                   0
Generic callback                                 0x50
Tried aggregator 2 times.
MIP Presolve eliminated 0 rows and 1 columns.
Aggregator did 52 substitutions.
Reduced MIP has 112 rows, 2126 columns, and 7509 nonzeros.
Reduced MIP has 2125 binaries, 0 generals, 0 SOSs, and 0 indicators.
Presolve time = 0.02 sec. (5.95 ticks)
Found incumbent of value 131.000000 after 0.03 sec. (7.48 ticks)
Tried aggregator 1 time.
Detecting symmetries...
Reduced MIP has 112 rows, 2126 columns, and 7509 nonzeros.
Reduced MIP has 2125 binaries, 1 generals, 0 SOSs, and 0 indicators.
Presolve time = 0.02 sec. (4.57 ticks)
Dual steepest-edge pricing selected.
Probing time = 0.00 sec. (2.08 ticks)
Cover probing fixed 0 vars, tightened 3 bounds.
Clique table members: 60.
MIP emphasis: balance optimality and feasibility.
MIP search method: dynamic search.
Parallel mode: deterministic, using up to 8 threads.
Parallel mode: deterministic, using up to 2 threads for parallel tasks at root LP.
Parallel mode: deterministic, using up to 6 threads for concurrent optimization:
 * Starting dual Simplex on 1 thread...
 * Starting Barrier on 4 threads...
 * Starting primal Simplex on 1 thread...
Tried aggregator 1 time.
No LP presolve or aggregator reductions.
Presolve time = 0.00 sec. (0.71 ticks)
Initializing dual steep norms . . .

Iteration log . . .
Iteration:     1   Dual objective     =             5.000000
Iteration:    62   Dual objective     =             5.000000
Perturbation started.
Iteration:   101   Dual objective     =             5.000000
Iteration:   163   Dual objective     =             9.307695
Iteration:   225   Dual objective     =             9.307697
Iteration:   287   Dual objective     =             9.307697
Removing perturbation.

Dual simplex solved model.

Root relaxation solution time = 0.09 sec. (15.40 ticks)

        Nodes                                         Cuts/
   Node  Left     Objective  IInf  Best Integer    Best Bound    ItCnt     Gap

*     0+    0                          131.0000        0.0000           100.00%
Found incumbent of value 131.000000 after 0.19 sec. (32.27 ticks)
*     0+    0                          100.0000        0.0000           100.00%
Found incumbent of value 100.000000 after 0.19 sec. (32.32 ticks)
      0     0        9.3077    89      100.0000        9.3077      289   90.69%
*     0+    0                           17.0000        9.3077            45.25%
Found incumbent of value 17.000000 after 0.23 sec. (36.25 ticks)
*     0+    0                           11.0000        9.3077            15.38%
Found incumbent of value 11.000000 after 0.63 sec. (98.31 ticks)
      0     0       10.0000    32       11.0000   ZeroHalf: 4      322    9.09%
      0     0       10.0000    52       11.0000      Cuts: 80      465    9.09%
      0     0       10.0000    23       11.0000      Cuts: 16      508    9.09%
      0     0       10.0000    46       11.0000      Cuts: 31      617    9.09%
*     0+    0                           10.0000       10.0000             0.00%
Found incumbent of value 10.000000 after 4.31 sec. (834.22 ticks)
      0     0  -1.00000e+75     0       10.0000       10.0000      617    0.00%
      0     0        cutoff             10.0000       10.0000      617    0.00%
Elapsed time = 4.33 sec. (834.53 ticks, tree = 0.01 MB, solutions = 5)

GUB cover cuts applied:  13
Flow cuts applied:  2
Mixed integer rounding cuts applied:  3
Zero-half cuts applied:  8
Gomory fractional cuts applied:  5

Root node processing (before b&c):
  Real time             =    4.33 sec. (834.70 ticks)
Parallel b&c, 8 threads:
  Real time             =    0.00 sec. (0.00 ticks)
  Sync time (average)   =    0.00 sec.
  Wait time (average)   =    0.00 sec.
                          ------------
Total (root+branch&cut) =    4.33 sec. (834.70 ticks)

--- MIP status (101): integer optimal solution.
--- Cplex Time: 4.34sec (det. 834.70 ticks)

--- Fixing integer variables and solving final LP...

Version identifier: 20.1.0.1 | 2021-04-07 | 3a818710c
CPXPARAM_Advance                                 2
CPXPARAM_Threads                                 8
CPXPARAM_Parallel                                1
CPXPARAM_MIP_Display                             4
CPXPARAM_MIP_Tolerances_AbsMIPGap                0
CPXPARAM_MIP_Tolerances_MIPGap                   0
Tried aggregator 1 time.
LP Presolve eliminated 164 rows and 2179 columns.
All rows and columns eliminated.
Presolve time = 0.00 sec. (0.77 ticks)

--- Fixed MIP status (1): optimal.
--- Cplex Time: 0.00sec (det. 1.00 ticks)


Proven optimal solution
MIP Solution:           10.000000    (617 iterations, 0 nodes)
Final Solve:            10.000000    (0 iterations)

Best possible:          10.000000
Absolute gap:            0.000000
Relative gap:            0.000000

--- Reading solution for model m2
--- Executing after solve: elapsed 0:00:09.417
--- SchedulingApproach.gms(156) 6 Mb
*** Status: Normal completion
--- Job SchedulingApproach.gms Stop 08/01/21 07:23:34 elapsed 0:00:09.424
